db/data/101701500319640292972567414696136111137.z3.out
-------------------
2500.167460027
